results/res_prop_muc/res_Cimatti_mathsat_cores/QF_LRA/sc-17.base.cvc.smt.smt2.out
### boolMucExtractionTime 5158052
